24 = ndim
6 = nblocks
6 6 6 6 6 6 = blockstruct
0.0, 0.0, 0.0, 0.0, 0.0, 0.0, 0.0, 0.0, 0.0, 0.0, 0.0, 0.0, 0.0, 0.0, 0.0, 0.0, 0.0, 0.0, 0.0, 0.0, 0.0, 0.0, 0.0, 0.0 = objcoeffs
0 1 3 3 -0.18111731586596563
0 2 1 1 -0.78306832275956
0 2 1 2 0.10581238053025428
0 2 1 3 0.018617879501138634
0 2 1 6 1.004199029554559
0 2 2 3 -0.02866097580369381
0 2 2 6 -1.63275724539969
0 2 3 3 -1.1436927723369015
0 2 3 4 -1.004199029554559
0 2 3 5 1.63275724539969
0 3 1 1 0.6205339581758285
0 3 1 2 0.011159611488746224
0 3 1 3 0.004598183586094207
0 3 1 6 0.00934492409363228
0 3 2 3 0.01673733917840678
0 3 2 6 -2.4797678332308557
0 3 3 3 -0.5934811241384383
0 3 3 4 -0.00934492409363228
0 3 3 5 2.4797678332308557
0 4 1 1 0.21036925684897537
0 4 1 2 -0.010929213802218512
0 4 1 3 0.0037706731129147665
0 4 1 6 0.01413347907491697
0 4 2 3 0.01811881187438137
0 4 2 6 -1.0832666045383532
0 4 3 3 -0.24477739767826484
0 4 3 4 -0.01413347907491697
0 4 3 5 1.0832666045383532
0 5 1 1 -0.019094562747101643
0 5 1 2 0.0020626749544632797
0 5 1 3 0.002157766841833983
0 5 1 6 -0.07550727645618888
0 5 2 3 0.0019725447524106586
0 5 2 6 -0.00126762302702982
0 5 3 3 -0.010982220848269395
0 5 3 4 0.07550727645618888
0 5 3 5 0.00126762302702982
0 6 1 1 0.0006506825610823781
0 6 1 2 -0.0005656137223953912
0 6 1 3 -0.003953815690787429
0 6 1 6 0.0011493863891631215
0 6 2 3 0.00019395234263300514
0 6 2 6 0.09549326427826527
0 6 3 3 -0.014932273785313269
0 6 3 4 -0.0011493863891631215
0 6 3 5 -0.09549326427826527
1 1 1 1 1.0
2 1 1 2 1.0
3 1 1 3 1.0
4 1 2 2 1.0
5 1 2 3 1.0
6 1 2 6 1.0
6 1 3 5 -1.0
7 1 1 6 -1.0
7 1 3 4 1.0
8 1 1 5 1.0
8 1 2 4 -1.0
9 1 4 4 1.0
9 1 5 5 1.0
9 1 6 6 1.0
10 1 3 3 -1.0
10 2 1 1 1.0
10 2 2 2 1.0
11 1 3 3 0.04992
11 2 1 5 1.0
11 2 2 4 -1.0
12 1 3 3 -0.0006230016
12 2 4 4 1.0
12 2 5 5 1.0
12 2 6 6 1.0
13 2 1 1 -1.0
13 2 3 3 -1.0
13 3 1 1 1.0
13 3 2 2 1.0
14 2 1 1 0.15326
14 2 1 2 -0.12511
14 2 1 6 -1.0
14 2 3 3 0.15326
14 2 3 4 1.0
14 3 1 5 1.0
14 3 2 4 -1.0
15 1 3 3 -0.0162755137
15 2 1 1 0.0097803552
15 2 1 2 0.0095871793
15 2 1 6 0.07663
15 2 2 6 -0.12511
15 2 3 3 -0.021524669
15 2 3 4 -0.07663
15 2 3 5 0.12511
15 3 4 4 1.0
15 3 5 5 1.0
15 3 6 6 1.0
16 2 1 1 -1.0
16 2 3 3 -1.0
16 4 1 1 1.0
16 4 2 2 1.0
17 2 1 1 -0.15326
17 2 1 2 0.12511
17 2 1 6 1.0
17 2 3 3 -0.15326
17 2 3 4 -1.0
17 3 1 3 -0.29989
17 4 1 5 1.0
17 4 2 4 -1.0
18 1 3 3 -0.0162755137
18 2 1 1 -0.0801536569
18 2 1 2 0.0095871793
18 2 1 6 0.07663
18 2 2 6 -0.12511
18 2 3 3 -0.1114586811
18 2 3 4 -0.07663
18 2 3 5 0.12511
18 3 1 1 0.0899340121
18 3 2 6 -0.29989
18 3 3 3 -0.0899340121
18 3 3 5 0.29989
18 4 4 4 1.0
18 4 5 5 1.0
18 4 6 6 1.0
19 2 1 1 -1.0
19 2 3 3 -1.0
19 5 1 1 1.0
19 5 2 2 1.0
20 2 1 1 -0.15326
20 2 1 2 0.12511
20 2 1 6 1.0
20 2 3 3 -0.15326
20 2 3 4 -1.0
20 3 1 3 -0.29989
20 4 1 3 0.29989
20 5 1 5 1.0
20 5 2 4 -1.0
21 1 3 3 -0.0162755137
21 2 1 1 -0.170087669
21 2 1 2 0.0095871793
21 2 1 6 0.07663
21 2 2 6 -0.12511
21 2 3 3 -0.2013926932
21 2 3 4 -0.07663
21 2 3 5 0.12511
21 3 1 1 0.0899340121
21 3 2 6 -0.29989
21 3 3 3 -0.0899340121
21 3 3 5 0.29989
21 4 1 1 0.0899340121
21 4 2 6 -0.29989
21 4 3 3 -0.0899340121
21 4 3 5 0.29989
21 5 4 4 1.0
21 5 5 5 1.0
21 5 6 6 1.0
22 5 1 1 -1.0
22 5 3 3 -1.0
22 6 1 1 1.0
22 6 2 2 1.0
23 5 1 6 -1.0
23 5 3 4 1.0
23 6 1 5 1.0
23 6 2 4 -1.0
24 1 3 3 -0.0162755137
24 2 1 1 -0.170087669
24 2 1 2 0.0095871793
24 2 1 6 0.07663
24 2 2 6 -0.12511
24 2 3 3 -0.2013926932
24 2 3 4 -0.07663
24 2 3 5 0.12511
24 3 1 1 0.0899340121
24 3 2 6 -0.29989
24 3 3 3 -0.0899340121
24 3 3 5 0.29989
24 4 1 1 0.0899340121
24 4 2 6 -0.29989
24 4 3 3 -0.0899340121
24 4 3 5 0.29989
24 6 4 4 1.0
24 6 5 5 1.0
24 6 6 6 1.0
